certificates/rado_a15_c28_N31.cnf
c Rad2 upper bound instance: x1 + 15*x2 - x3 = 28, interval [1,31]
p cnf 31 122
1 2 3 0
-1 -2 -3 0
1 3 18 0
-1 -3 -18 0
2 4 0
-2 -4 0
2 3 19 0
-2 -3 -19 0
2 3 5 0
-2 -3 -5 0
3 20 0
-3 -20 0
2 4 6 0
-2 -4 -6 0
3 4 21 0
-3 -4 -21 0
2 5 7 0
-2 -5 -7 0
3 5 22 0
-3 -5 -22 0
2 6 8 0
-2 -6 -8 0
3 6 23 0
-3 -6 -23 0
2 7 9 0
-2 -7 -9 0
3 7 24 0
-3 -7 -24 0
2 8 10 0
-2 -8 -10 0
3 8 25 0
-3 -8 -25 0
2 9 11 0
-2 -9 -11 0
3 9 26 0
-3 -9 -26 0
2 10 12 0
-2 -10 -12 0
3 10 27 0
-3 -10 -27 0
2 11 13 0
-2 -11 -13 0
3 11 28 0
-3 -11 -28 0
2 12 14 0
-2 -12 -14 0
3 12 29 0
-3 -12 -29 0
2 13 15 0
-2 -13 -15 0
3 13 30 0
-3 -13 -30 0
1 14 0
-1 -14 0
2 14 16 0
-2 -14 -16 0
3 14 31 0
-3 -14 -31 0
1 2 15 0
-1 -2 -15 0
2 15 17 0
-2 -15 -17 0
1 3 16 0
-1 -3 -16 0
2 16 18 0
-2 -16 -18 0
1 4 17 0
-1 -4 -17 0
2 17 19 0
-2 -17 -19 0
1 5 18 0
-1 -5 -18 0
2 18 20 0
-2 -18 -20 0
1 6 19 0
-1 -6 -19 0
2 19 21 0
-2 -19 -21 0
1 7 20 0
-1 -7 -20 0
2 20 22 0
-2 -20 -22 0
1 8 21 0
-1 -8 -21 0
2 21 23 0
-2 -21 -23 0
1 9 22 0
-1 -9 -22 0
2 22 24 0
-2 -22 -24 0
1 10 23 0
-1 -10 -23 0
2 23 25 0
-2 -23 -25 0
1 11 24 0
-1 -11 -24 0
2 24 26 0
-2 -24 -26 0
1 12 25 0
-1 -12 -25 0
2 25 27 0
-2 -25 -27 0
1 13 26 0
-1 -13 -26 0
2 26 28 0
-2 -26 -28 0
1 14 27 0
-1 -14 -27 0
2 27 29 0
-2 -27 -29 0
1 15 28 0
-1 -15 -28 0
2 28 30 0
-2 -28 -30 0
1 16 29 0
-1 -16 -29 0
2 29 31 0
-2 -29 -31 0
1 17 30 0
-1 -17 -30 0
1 18 31 0
-1 -18 -31 0
