certificates/rado_a15_c28_N31.drat
-21 2 0
8 -23 2 0
3 2 -29 0
-29 -31 0
d -29 -2 -31 0
-3 2 -31 0
2 -30 -31 0
3 28 -2 0
-30 -31 0
d 2 -30 -31 0
-3 -2 -31 0
-2 -31 0
d -3 -2 -31 0
-31 0
2 0
-4 0
-3 0
20 0
14 0
21 0
28 0
-22 0
-18 0
-1 0
-12 0
-16 0
-23 0
-19 0
-30 0
-26 0
5 0
9 0
0
